421 762 245 0 482
40 21 0 404 416
433 0 763 358 625
343 350 55 766 191
733 427 21 398 102
748 472 445 281 0
508 578 666 371 93
583 674 339 122 765
281 526 465 191 407
645 769 391 510 88
127 168 740 645 329
168 784 526 698 257
206 855 625 415 573
560 218 783 92 641
350 666 150 569 677
